\ Model p-center
\ LP format - for model browsing. Use MPS format to capture full model detail.
Minimize
  L
Subject To
 epigraph[0]: 2431.237907720211 x[0,1] + 1793.987539308457 x[0,2]
   + 481.2529287249471 x[0,3] + 126.3990761722635 x[0,4]
   + 39.024685339454 x[0,5] + 3459.370552350867 x[0,6]
   + 3000.774156913645 x[0,7] + 1660.508502221997 x[0,8]
   + 3469.451221656869 x[0,9] - L <= 0
 epigraph[1]: 2370.021792028895 x[1,0] + 1075.899550586991 x[1,2]
   + 1934.546454111582 x[1,3] + 2312.043865032287 x[1,4]
   + 2348.590418859208 x[1,5] + 1043.569156686782 x[1,6]
   + 1335.763976007006 x[1,7] + 963.2449735608022 x[1,8]
   + 1052.224210502219 x[1,9] - L <= 0
 epigraph[2]: 1742.180385260269 x[2,0] + 1071.816758090766 x[2,1]
   + 1277.551585485021 x[2,3] + 1644.046135382871 x[2,4]
   + 1709.604933415491 x[2,5] + 1804.129534514371 x[2,6]
   + 1173.976910966736 x[2,7] + 247.5668545517401 x[2,8]
   + 1814.651078697727 x[2,9] - L <= 0
 epigraph[3]: 748.0677242396846 x[3,0] + 3084.763077082876 x[3,1]
   + 2044.900963025531 x[3,2] + 613.4491378033165 x[3,4]
   + 699.7096741971458 x[3,5] + 4653.979446540842 x[3,6]
   + 3923.132201136668 x[3,7] + 1833.643695443753 x[3,8]
   + 4669.876250966618 x[3,9] - L <= 0
 epigraph[4]: 117.0310708795813 x[4,0] + 2195.980442667211 x[4,1]
   + 1567.464025365482 x[4,2] + 365.3998021139281 x[4,3]
   + 81.11996759135784 x[4,5] + 3136.830337305325 x[4,6]
   + 2682.066962874644 x[4,7] + 1453.901956084964 x[4,8]
   + 3146.272886773292 x[4,9] - L <= 0
 epigraph[5]: 41.63358512700493 x[5,0] + 2570.317684907842 x[5,1]
   + 1878.133525057428 x[5,2] + 480.2360374962182 x[5,3]
   + 93.47056965029513 x[5,4] + 3663.70028823682 x[5,6]
   + 3164.911514652745 x[5,7] + 1738.729791782497 x[5,8]
   + 3674.49149520956 x[5,9] - L <= 0
 epigraph[6]: 4996.515877549874 x[6,0] + 1546.203107335621 x[6,1]
   + 2683.268956344951 x[6,2] + 4324.412527335514 x[6,3]
   + 4893.323610148733 x[6,4] + 4960.046249582935 x[6,5]
   + 1804.634123913289 x[6,7] + 2694.006785680665 x[6,8]
   + 15.67678870900211 x[6,9] - L <= 0
 epigraph[7]: 2901.39706020107 x[7,0] + 1324.886582520705 x[7,1]
   + 1168.852509638755 x[7,2] + 2440.277789050299 x[7,3]
   + 2800.826411432555 x[7,4] + 2868.342632329621 x[7,5]
   + 1208.072040844015 x[7,6] + 1339.158493497013 x[7,8]
   + 1216.507326501186 x[7,9] - L <= 0
 epigraph[8]: 1666.776202166887 x[8,0] + 991.8547058903114 x[8,1]
   + 255.8909865145481 x[8,2] + 1184.086978596018 x[8,3]
   + 1576.209820601424 x[8,4] + 1635.926858584161 x[8,5]
   + 1872.253646476093 x[8,6] + 1390.254507592031 x[8,7]
   + 1882.93874471199 x[8,9] - L <= 0
 epigraph[9]: 3373.733285676788 x[9,0] + 1049.623074576911 x[9,1]
   + 1817.060524979236 x[9,2] + 2921.378309131311 x[9,3]
   + 3304.373027552479 x[9,4] + 3349.213293392128 x[9,5]
   + 10.55448087720735 x[9,6] + 1223.462980829746 x[9,7]
   + 1824.105548877699 x[9,8] - L <= 0
 p: y[0] + y[1] + y[2] + y[3] + y[4] + y[5] + y[6] + y[7] + y[8] + y[9]
   = 3
 x<y[0,0]: x[0,0] - y[0] <= 0
 x<y[0,1]: x[0,1] - y[1] <= 0
 x<y[0,2]: x[0,2] - y[2] <= 0
 x<y[0,3]: x[0,3] - y[3] <= 0
 x<y[0,4]: x[0,4] - y[4] <= 0
 x<y[0,5]: x[0,5] - y[5] <= 0
 x<y[0,6]: x[0,6] - y[6] <= 0
 x<y[0,7]: x[0,7] - y[7] <= 0
 x<y[0,8]: x[0,8] - y[8] <= 0
 x<y[0,9]: x[0,9] - y[9] <= 0
 x<y[1,0]: x[1,0] - y[0] <= 0
 x<y[1,1]: x[1,1] - y[1] <= 0
 x<y[1,2]: x[1,2] - y[2] <= 0
 x<y[1,3]: x[1,3] - y[3] <= 0
 x<y[1,4]: x[1,4] - y[4] <= 0
 x<y[1,5]: x[1,5] - y[5] <= 0
 x<y[1,6]: x[1,6] - y[6] <= 0
 x<y[1,7]: x[1,7] - y[7] <= 0
 x<y[1,8]: x[1,8] - y[8] <= 0
 x<y[1,9]: x[1,9] - y[9] <= 0
 x<y[2,0]: x[2,0] - y[0] <= 0
 x<y[2,1]: x[2,1] - y[1] <= 0
 x<y[2,2]: x[2,2] - y[2] <= 0
 x<y[2,3]: x[2,3] - y[3] <= 0
 x<y[2,4]: x[2,4] - y[4] <= 0
 x<y[2,5]: x[2,5] - y[5] <= 0
 x<y[2,6]: x[2,6] - y[6] <= 0
 x<y[2,7]: x[2,7] - y[7] <= 0
 x<y[2,8]: x[2,8] - y[8] <= 0
 x<y[2,9]: x[2,9] - y[9] <= 0
 x<y[3,0]: x[3,0] - y[0] <= 0
 x<y[3,1]: x[3,1] - y[1] <= 0
 x<y[3,2]: x[3,2] - y[2] <= 0
 x<y[3,3]: x[3,3] - y[3] <= 0
 x<y[3,4]: x[3,4] - y[4] <= 0
 x<y[3,5]: x[3,5] - y[5] <= 0
 x<y[3,6]: x[3,6] - y[6] <= 0
 x<y[3,7]: x[3,7] - y[7] <= 0
 x<y[3,8]: x[3,8] - y[8] <= 0
 x<y[3,9]: x[3,9] - y[9] <= 0
 x<y[4,0]: x[4,0] - y[0] <= 0
 x<y[4,1]: x[4,1] - y[1] <= 0
 x<y[4,2]: x[4,2] - y[2] <= 0
 x<y[4,3]: x[4,3] - y[3] <= 0
 x<y[4,4]: x[4,4] - y[4] <= 0
 x<y[4,5]: x[4,5] - y[5] <= 0
 x<y[4,6]: x[4,6] - y[6] <= 0
 x<y[4,7]: x[4,7] - y[7] <= 0
 x<y[4,8]: x[4,8] - y[8] <= 0
 x<y[4,9]: x[4,9] - y[9] <= 0
 x<y[5,0]: x[5,0] - y[0] <= 0
 x<y[5,1]: x[5,1] - y[1] <= 0
 x<y[5,2]: x[5,2] - y[2] <= 0
 x<y[5,3]: x[5,3] - y[3] <= 0
 x<y[5,4]: x[5,4] - y[4] <= 0
 x<y[5,5]: x[5,5] - y[5] <= 0
 x<y[5,6]: x[5,6] - y[6] <= 0
 x<y[5,7]: x[5,7] - y[7] <= 0
 x<y[5,8]: x[5,8] - y[8] <= 0
 x<y[5,9]: x[5,9] - y[9] <= 0
 x<y[6,0]: x[6,0] - y[0] <= 0
 x<y[6,1]: x[6,1] - y[1] <= 0
 x<y[6,2]: x[6,2] - y[2] <= 0
 x<y[6,3]: x[6,3] - y[3] <= 0
 x<y[6,4]: x[6,4] - y[4] <= 0
 x<y[6,5]: x[6,5] - y[5] <= 0
 x<y[6,6]: x[6,6] - y[6] <= 0
 x<y[6,7]: x[6,7] - y[7] <= 0
 x<y[6,8]: x[6,8] - y[8] <= 0
 x<y[6,9]: x[6,9] - y[9] <= 0
 x<y[7,0]: x[7,0] - y[0] <= 0
 x<y[7,1]: x[7,1] - y[1] <= 0
 x<y[7,2]: x[7,2] - y[2] <= 0
 x<y[7,3]: x[7,3] - y[3] <= 0
 x<y[7,4]: x[7,4] - y[4] <= 0
 x<y[7,5]: x[7,5] - y[5] <= 0
 x<y[7,6]: x[7,6] - y[6] <= 0
 x<y[7,7]: x[7,7] - y[7] <= 0
 x<y[7,8]: x[7,8] - y[8] <= 0
 x<y[7,9]: x[7,9] - y[9] <= 0
 x<y[8,0]: x[8,0] - y[0] <= 0
 x<y[8,1]: x[8,1] - y[1] <= 0
 x<y[8,2]: x[8,2] - y[2] <= 0
 x<y[8,3]: x[8,3] - y[3] <= 0
 x<y[8,4]: x[8,4] - y[4] <= 0
 x<y[8,5]: x[8,5] - y[5] <= 0
 x<y[8,6]: x[8,6] - y[6] <= 0
 x<y[8,7]: x[8,7] - y[7] <= 0
 x<y[8,8]: x[8,8] - y[8] <= 0
 x<y[8,9]: x[8,9] - y[9] <= 0
 x<y[9,0]: x[9,0] - y[0] <= 0
 x<y[9,1]: x[9,1] - y[1] <= 0
 x<y[9,2]: x[9,2] - y[2] <= 0
 x<y[9,3]: x[9,3] - y[3] <= 0
 x<y[9,4]: x[9,4] - y[4] <= 0
 x<y[9,5]: x[9,5] - y[5] <= 0
 x<y[9,6]: x[9,6] - y[6] <= 0
 x<y[9,7]: x[9,7] - y[7] <= 0
 x<y[9,8]: x[9,8] - y[8] <= 0
 x<y[9,9]: x[9,9] - y[9] <= 0
 sumx[0]: x[0,0] + x[0,1] + x[0,2] + x[0,3] + x[0,4] + x[0,5] + x[0,6]
   + x[0,7] + x[0,8] + x[0,9] = 1
 sumx[1]: x[1,0] + x[1,1] + x[1,2] + x[1,3] + x[1,4] + x[1,5] + x[1,6]
   + x[1,7] + x[1,8] + x[1,9] = 1
 sumx[2]: x[2,0] + x[2,1] + x[2,2] + x[2,3] + x[2,4] + x[2,5] + x[2,6]
   + x[2,7] + x[2,8] + x[2,9] = 1
 sumx[3]: x[3,0] + x[3,1] + x[3,2] + x[3,3] + x[3,4] + x[3,5] + x[3,6]
   + x[3,7] + x[3,8] + x[3,9] = 1
 sumx[4]: x[4,0] + x[4,1] + x[4,2] + x[4,3] + x[4,4] + x[4,5] + x[4,6]
   + x[4,7] + x[4,8] + x[4,9] = 1
 sumx[5]: x[5,0] + x[5,1] + x[5,2] + x[5,3] + x[5,4] + x[5,5] + x[5,6]
   + x[5,7] + x[5,8] + x[5,9] = 1
 sumx[6]: x[6,0] + x[6,1] + x[6,2] + x[6,3] + x[6,4] + x[6,5] + x[6,6]
   + x[6,7] + x[6,8] + x[6,9] = 1
 sumx[7]: x[7,0] + x[7,1] + x[7,2] + x[7,3] + x[7,4] + x[7,5] + x[7,6]
   + x[7,7] + x[7,8] + x[7,9] = 1
 sumx[8]: x[8,0] + x[8,1] + x[8,2] + x[8,3] + x[8,4] + x[8,5] + x[8,6]
   + x[8,7] + x[8,8] + x[8,9] = 1
 sumx[9]: x[9,0] + x[9,1] + x[9,2] + x[9,3] + x[9,4] + x[9,5] + x[9,6]
   + x[9,7] + x[9,8] + x[9,9] = 1
Bounds
Binaries
 x[0,0] x[0,1] x[0,2] x[0,3] x[0,4] x[0,5] x[0,6] x[0,7] x[0,8] x[0,9]
 x[1,0] x[1,1] x[1,2] x[1,3] x[1,4] x[1,5] x[1,6] x[1,7] x[1,8] x[1,9]
 x[2,0] x[2,1] x[2,2] x[2,3] x[2,4] x[2,5] x[2,6] x[2,7] x[2,8] x[2,9]
 x[3,0] x[3,1] x[3,2] x[3,3] x[3,4] x[3,5] x[3,6] x[3,7] x[3,8] x[3,9]
 x[4,0] x[4,1] x[4,2] x[4,3] x[4,4] x[4,5] x[4,6] x[4,7] x[4,8] x[4,9]
 x[5,0] x[5,1] x[5,2] x[5,3] x[5,4] x[5,5] x[5,6] x[5,7] x[5,8] x[5,9]
 x[6,0] x[6,1] x[6,2] x[6,3] x[6,4] x[6,5] x[6,6] x[6,7] x[6,8] x[6,9]
 x[7,0] x[7,1] x[7,2] x[7,3] x[7,4] x[7,5] x[7,6] x[7,7] x[7,8] x[7,9]
 x[8,0] x[8,1] x[8,2] x[8,3] x[8,4] x[8,5] x[8,6] x[8,7] x[8,8] x[8,9]
 x[9,0] x[9,1] x[9,2] x[9,3] x[9,4] x[9,5] x[9,6] x[9,7] x[9,8] x[9,9] y[0]
 y[1] y[2] y[3] y[4] y[5] y[6] y[7] y[8] y[9]
End
